c This file is generated by v2cnfMtr
c Generated on Mon Nov  9 17:05:04 2015
p cnf 691 1808
-1 -3 -21 0
1 21 0
3 21 0
-3 -4 -18 0
3 18 0
4 18 0
-2 -37 -20 0
2 20 0
37 20 0
-5 -37 -19 0
5 19 0
37 19 0
-24 -63 -16 0
24 16 0
63 16 0
-76 -76 -17 0
76 17 0
76 17 0
6 22 0
-6 -22 0
7 23 0
-7 -23 0
-1 -22 25 0
1 -25 0
22 -25 0
-21 -6 26 0
21 -26 0
6 -26 0
-4 -22 27 0
4 -27 0
22 -27 0
-21 -6 28 0
21 -28 0
6 -28 0
-25 -23 29 0
25 -29 0
23 -29 0
-26 -7 30 0
26 -30 0
7 -30 0
-27 -23 31 0
27 -31 0
23 -31 0
-28 -7 32 0
28 -32 0
7 -32 0
29 30 -33 0
-29 33 0
-30 33 0
31 33 -34 0
-31 34 0
-33 34 0
34 32 -24 0
-34 24 0
-32 24 0
8 35 0
-8 -35 0
9 36 0
-9 -36 0
-1 -35 38 0
1 -38 0
35 -38 0
-18 -8 39 0
18 -39 0
8 -39 0
-4 -35 40 0
4 -40 0
35 -40 0
-18 -8 41 0
18 -41 0
8 -41 0
-38 -36 42 0
38 -42 0
36 -42 0
-39 -9 43 0
39 -43 0
9 -43 0
-40 -36 44 0
40 -44 0
36 -44 0
-41 -9 45 0
41 -45 0
9 -45 0
42 43 -46 0
-42 46 0
-43 46 0
44 46 -47 0
-44 47 0
-46 47 0
47 45 -37 0
-47 37 0
-45 37 0
10 48 0
-10 -48 0
11 49 0
-11 -49 0
-1 -48 51 0
1 -51 0
48 -51 0
-18 -10 52 0
18 -52 0
10 -52 0
-4 -48 53 0
4 -53 0
48 -53 0
-18 -10 54 0
18 -54 0
10 -54 0
-51 -49 55 0
51 -55 0
49 -55 0
-52 -11 56 0
52 -56 0
11 -56 0
-53 -49 57 0
53 -57 0
49 -57 0
-54 -11 58 0
54 -58 0
11 -58 0
55 56 -59 0
-55 59 0
-56 59 0
57 59 -60 0
-57 60 0
-59 60 0
60 58 -50 0
-60 50 0
-58 50 0
12 61 0
-12 -61 0
13 62 0
-13 -62 0
-1 -61 64 0
1 -64 0
61 -64 0
-20 -12 65 0
20 -65 0
12 -65 0
-4 -61 66 0
4 -66 0
61 -66 0
-20 -12 67 0
20 -67 0
12 -67 0
-64 -62 68 0
64 -68 0
62 -68 0
-65 -13 69 0
65 -69 0
13 -69 0
-66 -62 70 0
66 -70 0
62 -70 0
-67 -13 71 0
67 -71 0
13 -71 0
68 69 -72 0
-68 72 0
-69 72 0
70 72 -73 0
-70 73 0
-72 73 0
73 71 -63 0
-73 63 0
-71 63 0
14 74 0
-14 -74 0
15 75 0
-15 -75 0
-1 -74 77 0
1 -77 0
74 -77 0
-19 -14 78 0
19 -78 0
14 -78 0
-4 -74 79 0
4 -79 0
74 -79 0
-19 -14 80 0
19 -80 0
14 -80 0
-77 -75 81 0
77 -81 0
75 -81 0
-78 -15 82 0
78 -82 0
15 -82 0
-79 -75 83 0
79 -83 0
75 -83 0
-80 -15 84 0
80 -84 0
15 -84 0
81 82 -85 0
-81 85 0
-82 85 0
83 85 -86 0
-83 86 0
-85 86 0
86 84 -76 0
-86 76 0
-84 76 0
c The second circuit:
-87 -89 -107 0
87 107 0
89 107 0
-89 -90 -104 0
89 104 0
90 104 0
-88 -123 -106 0
88 106 0
123 106 0
-91 -123 -105 0
91 105 0
123 105 0
-110 -149 -102 0
110 102 0
149 102 0
-162 -162 -103 0
162 103 0
162 103 0
92 108 0
-92 -108 0
93 109 0
-93 -109 0
-87 -108 111 0
87 -111 0
108 -111 0
-107 -92 112 0
107 -112 0
92 -112 0
-90 -108 113 0
90 -113 0
108 -113 0
-107 -92 114 0
107 -114 0
92 -114 0
-111 -109 115 0
111 -115 0
109 -115 0
-112 -93 116 0
112 -116 0
93 -116 0
-113 -109 117 0
113 -117 0
109 -117 0
-114 -93 118 0
114 -118 0
93 -118 0
115 116 -119 0
-115 119 0
-116 119 0
117 119 -120 0
-117 120 0
-119 120 0
120 118 -110 0
-120 110 0
-118 110 0
94 121 0
-94 -121 0
95 122 0
-95 -122 0
-87 -121 124 0
87 -124 0
121 -124 0
-104 -94 125 0
104 -125 0
94 -125 0
-90 -121 126 0
90 -126 0
121 -126 0
-104 -94 127 0
104 -127 0
94 -127 0
-124 -122 128 0
124 -128 0
122 -128 0
-125 -95 129 0
125 -129 0
95 -129 0
-126 -122 130 0
126 -130 0
122 -130 0
-127 -95 131 0
127 -131 0
95 -131 0
128 129 -132 0
-128 132 0
-129 132 0
130 132 -133 0
-130 133 0
-132 133 0
133 131 -123 0
-133 123 0
-131 123 0
96 134 0
-96 -134 0
97 135 0
-97 -135 0
-87 -134 137 0
87 -137 0
134 -137 0
-104 -96 138 0
104 -138 0
96 -138 0
-90 -134 139 0
90 -139 0
134 -139 0
-104 -96 140 0
104 -140 0
96 -140 0
-137 -135 141 0
137 -141 0
135 -141 0
-138 -97 142 0
138 -142 0
97 -142 0
-139 -135 143 0
139 -143 0
135 -143 0
-140 -97 144 0
140 -144 0
97 -144 0
141 142 -145 0
-141 145 0
-142 145 0
143 145 -146 0
-143 146 0
-145 146 0
146 144 -136 0
-146 136 0
-144 136 0
98 147 0
-98 -147 0
99 148 0
-99 -148 0
-87 -147 150 0
87 -150 0
147 -150 0
-106 -98 151 0
106 -151 0
98 -151 0
-90 -147 152 0
90 -152 0
147 -152 0
-106 -98 153 0
106 -153 0
98 -153 0
-150 -148 154 0
150 -154 0
148 -154 0
-151 -99 155 0
151 -155 0
99 -155 0
-152 -148 156 0
152 -156 0
148 -156 0
-153 -99 157 0
153 -157 0
99 -157 0
154 155 -158 0
-154 158 0
-155 158 0
156 158 -159 0
-156 159 0
-158 159 0
159 157 -149 0
-159 149 0
-157 149 0
100 160 0
-100 -160 0
101 161 0
-101 -161 0
-87 -160 163 0
87 -163 0
160 -163 0
-105 -100 164 0
105 -164 0
100 -164 0
-90 -160 165 0
90 -165 0
160 -165 0
-105 -100 166 0
105 -166 0
100 -166 0
-163 -161 167 0
163 -167 0
161 -167 0
-164 -101 168 0
164 -168 0
101 -168 0
-165 -161 169 0
165 -169 0
161 -169 0
-166 -101 170 0
166 -170 0
101 -170 0
167 168 -171 0
-167 171 0
-168 171 0
169 171 -172 0
-169 172 0
-171 172 0
172 170 -162 0
-172 162 0
-170 162 0
c Force PIs of 2 ckts to be the same:
1 -87 0
-1 87 0
2 -88 0
-2 88 0
3 -89 0
-3 89 0
4 -90 0
-4 90 0
5 -91 0
-5 91 0
c XOR outputs of 2 ckts:
-16 -102 -173 0
16 102 -173 0
16 -102 173 0
-16 102 173 0
-17 -103 -174 0
17 103 -174 0
17 -103 174 0
-17 103 174 0
c The last OR gate of the miter:
173 174 -175 0
-173 175 0
-174 175 0
175 0
c New ckt:
-176 -178 -196 0
176 196 0
178 196 0
-178 -179 -193 0
178 193 0
179 193 0
-177 -212 -195 0
177 195 0
212 195 0
-180 -212 -194 0
180 194 0
212 194 0
-199 -238 -191 0
199 191 0
238 191 0
-251 -251 -192 0
251 192 0
251 192 0
181 197 0
-181 -197 0
182 198 0
-182 -198 0
-176 -197 200 0
176 -200 0
197 -200 0
-196 -181 201 0
196 -201 0
181 -201 0
-179 -197 202 0
179 -202 0
197 -202 0
-196 -181 203 0
196 -203 0
181 -203 0
-200 -198 204 0
200 -204 0
198 -204 0
-201 -182 205 0
201 -205 0
182 -205 0
-202 -198 206 0
202 -206 0
198 -206 0
-203 -182 207 0
203 -207 0
182 -207 0
204 205 -208 0
-204 208 0
-205 208 0
206 208 -209 0
-206 209 0
-208 209 0
209 207 -199 0
-209 199 0
-207 199 0
183 210 0
-183 -210 0
184 211 0
-184 -211 0
-176 -210 213 0
176 -213 0
210 -213 0
-193 -183 214 0
193 -214 0
183 -214 0
-179 -210 215 0
179 -215 0
210 -215 0
-193 -183 216 0
193 -216 0
183 -216 0
-213 -211 217 0
213 -217 0
211 -217 0
-214 -184 218 0
214 -218 0
184 -218 0
-215 -211 219 0
215 -219 0
211 -219 0
-216 -184 220 0
216 -220 0
184 -220 0
217 218 -221 0
-217 221 0
-218 221 0
219 221 -222 0
-219 222 0
-221 222 0
222 220 -212 0
-222 212 0
-220 212 0
185 223 0
-185 -223 0
186 224 0
-186 -224 0
-176 -223 226 0
176 -226 0
223 -226 0
-193 -185 227 0
193 -227 0
185 -227 0
-179 -223 228 0
179 -228 0
223 -228 0
-193 -185 229 0
193 -229 0
185 -229 0
-226 -224 230 0
226 -230 0
224 -230 0
-227 -186 231 0
227 -231 0
186 -231 0
-228 -224 232 0
228 -232 0
224 -232 0
-229 -186 233 0
229 -233 0
186 -233 0
230 231 -234 0
-230 234 0
-231 234 0
232 234 -235 0
-232 235 0
-234 235 0
235 233 -225 0
-235 225 0
-233 225 0
187 236 0
-187 -236 0
188 237 0
-188 -237 0
-176 -236 239 0
176 -239 0
236 -239 0
-195 -187 240 0
195 -240 0
187 -240 0
-179 -236 241 0
179 -241 0
236 -241 0
-195 -187 242 0
195 -242 0
187 -242 0
-239 -237 243 0
239 -243 0
237 -243 0
-240 -188 244 0
240 -244 0
188 -244 0
-241 -237 245 0
241 -245 0
237 -245 0
-242 -188 246 0
242 -246 0
188 -246 0
243 244 -247 0
-243 247 0
-244 247 0
245 247 -248 0
-245 248 0
-247 248 0
248 246 -238 0
-248 238 0
-246 238 0
189 249 0
-189 -249 0
190 250 0
-190 -250 0
-176 -249 252 0
176 -252 0
249 -252 0
-194 -189 253 0
194 -253 0
189 -253 0
-179 -249 254 0
179 -254 0
249 -254 0
-194 -189 255 0
194 -255 0
189 -255 0
-252 -250 256 0
252 -256 0
250 -256 0
-253 -190 257 0
253 -257 0
190 -257 0
-254 -250 258 0
254 -258 0
250 -258 0
-255 -190 259 0
255 -259 0
190 -259 0
256 257 -260 0
-256 260 0
-257 260 0
258 260 -261 0
-258 261 0
-260 261 0
261 259 -251 0
-261 251 0
-259 251 0
6 -181 0
-6 181 0
7 -182 0
-7 182 0
8 -183 0
-8 183 0
9 -184 0
-9 184 0
10 -185 0
-10 185 0
11 -186 0
-11 186 0
12 -187 0
-12 187 0
13 -188 0
-13 188 0
14 -189 0
-14 189 0
15 -190 0
-15 190 0
-176 0
-177 0
-178 0
179 0
-180 0
-191 0
-192 0
c New ckt:
-262 -264 -282 0
262 282 0
264 282 0
-264 -265 -279 0
264 279 0
265 279 0
-263 -298 -281 0
263 281 0
298 281 0
-266 -298 -280 0
266 280 0
298 280 0
-285 -324 -277 0
285 277 0
324 277 0
-337 -337 -278 0
337 278 0
337 278 0
267 283 0
-267 -283 0
268 284 0
-268 -284 0
-262 -283 286 0
262 -286 0
283 -286 0
-282 -267 287 0
282 -287 0
267 -287 0
-265 -283 288 0
265 -288 0
283 -288 0
-282 -267 289 0
282 -289 0
267 -289 0
-286 -284 290 0
286 -290 0
284 -290 0
-287 -268 291 0
287 -291 0
268 -291 0
-288 -284 292 0
288 -292 0
284 -292 0
-289 -268 293 0
289 -293 0
268 -293 0
290 291 -294 0
-290 294 0
-291 294 0
292 294 -295 0
-292 295 0
-294 295 0
295 293 -285 0
-295 285 0
-293 285 0
269 296 0
-269 -296 0
270 297 0
-270 -297 0
-262 -296 299 0
262 -299 0
296 -299 0
-279 -269 300 0
279 -300 0
269 -300 0
-265 -296 301 0
265 -301 0
296 -301 0
-279 -269 302 0
279 -302 0
269 -302 0
-299 -297 303 0
299 -303 0
297 -303 0
-300 -270 304 0
300 -304 0
270 -304 0
-301 -297 305 0
301 -305 0
297 -305 0
-302 -270 306 0
302 -306 0
270 -306 0
303 304 -307 0
-303 307 0
-304 307 0
305 307 -308 0
-305 308 0
-307 308 0
308 306 -298 0
-308 298 0
-306 298 0
271 309 0
-271 -309 0
272 310 0
-272 -310 0
-262 -309 312 0
262 -312 0
309 -312 0
-279 -271 313 0
279 -313 0
271 -313 0
-265 -309 314 0
265 -314 0
309 -314 0
-279 -271 315 0
279 -315 0
271 -315 0
-312 -310 316 0
312 -316 0
310 -316 0
-313 -272 317 0
313 -317 0
272 -317 0
-314 -310 318 0
314 -318 0
310 -318 0
-315 -272 319 0
315 -319 0
272 -319 0
316 317 -320 0
-316 320 0
-317 320 0
318 320 -321 0
-318 321 0
-320 321 0
321 319 -311 0
-321 311 0
-319 311 0
273 322 0
-273 -322 0
274 323 0
-274 -323 0
-262 -322 325 0
262 -325 0
322 -325 0
-281 -273 326 0
281 -326 0
273 -326 0
-265 -322 327 0
265 -327 0
322 -327 0
-281 -273 328 0
281 -328 0
273 -328 0
-325 -323 329 0
325 -329 0
323 -329 0
-326 -274 330 0
326 -330 0
274 -330 0
-327 -323 331 0
327 -331 0
323 -331 0
-328 -274 332 0
328 -332 0
274 -332 0
329 330 -333 0
-329 333 0
-330 333 0
331 333 -334 0
-331 334 0
-333 334 0
334 332 -324 0
-334 324 0
-332 324 0
275 335 0
-275 -335 0
276 336 0
-276 -336 0
-262 -335 338 0
262 -338 0
335 -338 0
-280 -275 339 0
280 -339 0
275 -339 0
-265 -335 340 0
265 -340 0
335 -340 0
-280 -275 341 0
280 -341 0
275 -341 0
-338 -336 342 0
338 -342 0
336 -342 0
-339 -276 343 0
339 -343 0
276 -343 0
-340 -336 344 0
340 -344 0
336 -344 0
-341 -276 345 0
341 -345 0
276 -345 0
342 343 -346 0
-342 346 0
-343 346 0
344 346 -347 0
-344 347 0
-346 347 0
347 345 -337 0
-347 337 0
-345 337 0
92 -267 0
-92 267 0
93 -268 0
-93 268 0
94 -269 0
-94 269 0
95 -270 0
-95 270 0
96 -271 0
-96 271 0
97 -272 0
-97 272 0
98 -273 0
-98 273 0
99 -274 0
-99 274 0
100 -275 0
-100 275 0
101 -276 0
-101 276 0
-262 0
-263 0
-264 0
265 0
-266 0
-277 0
-278 0
c New ckt:
-348 -350 -368 0
348 368 0
350 368 0
-350 -351 -365 0
350 365 0
351 365 0
-349 -384 -367 0
349 367 0
384 367 0
-352 -384 -366 0
352 366 0
384 366 0
-371 -410 -363 0
371 363 0
410 363 0
-423 -423 -364 0
423 364 0
423 364 0
353 369 0
-353 -369 0
354 370 0
-354 -370 0
-348 -369 372 0
348 -372 0
369 -372 0
-368 -353 373 0
368 -373 0
353 -373 0
-351 -369 374 0
351 -374 0
369 -374 0
-368 -353 375 0
368 -375 0
353 -375 0
-372 -370 376 0
372 -376 0
370 -376 0
-373 -354 377 0
373 -377 0
354 -377 0
-374 -370 378 0
374 -378 0
370 -378 0
-375 -354 379 0
375 -379 0
354 -379 0
376 377 -380 0
-376 380 0
-377 380 0
378 380 -381 0
-378 381 0
-380 381 0
381 379 -371 0
-381 371 0
-379 371 0
355 382 0
-355 -382 0
356 383 0
-356 -383 0
-348 -382 385 0
348 -385 0
382 -385 0
-365 -355 386 0
365 -386 0
355 -386 0
-351 -382 387 0
351 -387 0
382 -387 0
-365 -355 388 0
365 -388 0
355 -388 0
-385 -383 389 0
385 -389 0
383 -389 0
-386 -356 390 0
386 -390 0
356 -390 0
-387 -383 391 0
387 -391 0
383 -391 0
-388 -356 392 0
388 -392 0
356 -392 0
389 390 -393 0
-389 393 0
-390 393 0
391 393 -394 0
-391 394 0
-393 394 0
394 392 -384 0
-394 384 0
-392 384 0
357 395 0
-357 -395 0
358 396 0
-358 -396 0
-348 -395 398 0
348 -398 0
395 -398 0
-365 -357 399 0
365 -399 0
357 -399 0
-351 -395 400 0
351 -400 0
395 -400 0
-365 -357 401 0
365 -401 0
357 -401 0
-398 -396 402 0
398 -402 0
396 -402 0
-399 -358 403 0
399 -403 0
358 -403 0
-400 -396 404 0
400 -404 0
396 -404 0
-401 -358 405 0
401 -405 0
358 -405 0
402 403 -406 0
-402 406 0
-403 406 0
404 406 -407 0
-404 407 0
-406 407 0
407 405 -397 0
-407 397 0
-405 397 0
359 408 0
-359 -408 0
360 409 0
-360 -409 0
-348 -408 411 0
348 -411 0
408 -411 0
-367 -359 412 0
367 -412 0
359 -412 0
-351 -408 413 0
351 -413 0
408 -413 0
-367 -359 414 0
367 -414 0
359 -414 0
-411 -409 415 0
411 -415 0
409 -415 0
-412 -360 416 0
412 -416 0
360 -416 0
-413 -409 417 0
413 -417 0
409 -417 0
-414 -360 418 0
414 -418 0
360 -418 0
415 416 -419 0
-415 419 0
-416 419 0
417 419 -420 0
-417 420 0
-419 420 0
420 418 -410 0
-420 410 0
-418 410 0
361 421 0
-361 -421 0
362 422 0
-362 -422 0
-348 -421 424 0
348 -424 0
421 -424 0
-366 -361 425 0
366 -425 0
361 -425 0
-351 -421 426 0
351 -426 0
421 -426 0
-366 -361 427 0
366 -427 0
361 -427 0
-424 -422 428 0
424 -428 0
422 -428 0
-425 -362 429 0
425 -429 0
362 -429 0
-426 -422 430 0
426 -430 0
422 -430 0
-427 -362 431 0
427 -431 0
362 -431 0
428 429 -432 0
-428 432 0
-429 432 0
430 432 -433 0
-430 433 0
-432 433 0
433 431 -423 0
-433 423 0
-431 423 0
6 -353 0
-6 353 0
7 -354 0
-7 354 0
8 -355 0
-8 355 0
9 -356 0
-9 356 0
10 -357 0
-10 357 0
11 -358 0
-11 358 0
12 -359 0
-12 359 0
13 -360 0
-13 360 0
14 -361 0
-14 361 0
15 -362 0
-15 362 0
-348 0
349 0
350 0
-351 0
-352 0
363 0
-364 0
c New ckt:
-434 -436 -454 0
434 454 0
436 454 0
-436 -437 -451 0
436 451 0
437 451 0
-435 -470 -453 0
435 453 0
470 453 0
-438 -470 -452 0
438 452 0
470 452 0
-457 -496 -449 0
457 449 0
496 449 0
-509 -509 -450 0
509 450 0
509 450 0
439 455 0
-439 -455 0
440 456 0
-440 -456 0
-434 -455 458 0
434 -458 0
455 -458 0
-454 -439 459 0
454 -459 0
439 -459 0
-437 -455 460 0
437 -460 0
455 -460 0
-454 -439 461 0
454 -461 0
439 -461 0
-458 -456 462 0
458 -462 0
456 -462 0
-459 -440 463 0
459 -463 0
440 -463 0
-460 -456 464 0
460 -464 0
456 -464 0
-461 -440 465 0
461 -465 0
440 -465 0
462 463 -466 0
-462 466 0
-463 466 0
464 466 -467 0
-464 467 0
-466 467 0
467 465 -457 0
-467 457 0
-465 457 0
441 468 0
-441 -468 0
442 469 0
-442 -469 0
-434 -468 471 0
434 -471 0
468 -471 0
-451 -441 472 0
451 -472 0
441 -472 0
-437 -468 473 0
437 -473 0
468 -473 0
-451 -441 474 0
451 -474 0
441 -474 0
-471 -469 475 0
471 -475 0
469 -475 0
-472 -442 476 0
472 -476 0
442 -476 0
-473 -469 477 0
473 -477 0
469 -477 0
-474 -442 478 0
474 -478 0
442 -478 0
475 476 -479 0
-475 479 0
-476 479 0
477 479 -480 0
-477 480 0
-479 480 0
480 478 -470 0
-480 470 0
-478 470 0
443 481 0
-443 -481 0
444 482 0
-444 -482 0
-434 -481 484 0
434 -484 0
481 -484 0
-451 -443 485 0
451 -485 0
443 -485 0
-437 -481 486 0
437 -486 0
481 -486 0
-451 -443 487 0
451 -487 0
443 -487 0
-484 -482 488 0
484 -488 0
482 -488 0
-485 -444 489 0
485 -489 0
444 -489 0
-486 -482 490 0
486 -490 0
482 -490 0
-487 -444 491 0
487 -491 0
444 -491 0
488 489 -492 0
-488 492 0
-489 492 0
490 492 -493 0
-490 493 0
-492 493 0
493 491 -483 0
-493 483 0
-491 483 0
445 494 0
-445 -494 0
446 495 0
-446 -495 0
-434 -494 497 0
434 -497 0
494 -497 0
-453 -445 498 0
453 -498 0
445 -498 0
-437 -494 499 0
437 -499 0
494 -499 0
-453 -445 500 0
453 -500 0
445 -500 0
-497 -495 501 0
497 -501 0
495 -501 0
-498 -446 502 0
498 -502 0
446 -502 0
-499 -495 503 0
499 -503 0
495 -503 0
-500 -446 504 0
500 -504 0
446 -504 0
501 502 -505 0
-501 505 0
-502 505 0
503 505 -506 0
-503 506 0
-505 506 0
506 504 -496 0
-506 496 0
-504 496 0
447 507 0
-447 -507 0
448 508 0
-448 -508 0
-434 -507 510 0
434 -510 0
507 -510 0
-452 -447 511 0
452 -511 0
447 -511 0
-437 -507 512 0
437 -512 0
507 -512 0
-452 -447 513 0
452 -513 0
447 -513 0
-510 -508 514 0
510 -514 0
508 -514 0
-511 -448 515 0
511 -515 0
448 -515 0
-512 -508 516 0
512 -516 0
508 -516 0
-513 -448 517 0
513 -517 0
448 -517 0
514 515 -518 0
-514 518 0
-515 518 0
516 518 -519 0
-516 519 0
-518 519 0
519 517 -509 0
-519 509 0
-517 509 0
92 -439 0
-92 439 0
93 -440 0
-93 440 0
94 -441 0
-94 441 0
95 -442 0
-95 442 0
96 -443 0
-96 443 0
97 -444 0
-97 444 0
98 -445 0
-98 445 0
99 -446 0
-99 446 0
100 -447 0
-100 447 0
101 -448 0
-101 448 0
-434 0
435 0
436 0
-437 0
-438 0
449 0
-450 0
c New ckt:
-520 -522 -540 0
520 540 0
522 540 0
-522 -523 -537 0
522 537 0
523 537 0
-521 -556 -539 0
521 539 0
556 539 0
-524 -556 -538 0
524 538 0
556 538 0
-543 -582 -535 0
543 535 0
582 535 0
-595 -595 -536 0
595 536 0
595 536 0
525 541 0
-525 -541 0
526 542 0
-526 -542 0
-520 -541 544 0
520 -544 0
541 -544 0
-540 -525 545 0
540 -545 0
525 -545 0
-523 -541 546 0
523 -546 0
541 -546 0
-540 -525 547 0
540 -547 0
525 -547 0
-544 -542 548 0
544 -548 0
542 -548 0
-545 -526 549 0
545 -549 0
526 -549 0
-546 -542 550 0
546 -550 0
542 -550 0
-547 -526 551 0
547 -551 0
526 -551 0
548 549 -552 0
-548 552 0
-549 552 0
550 552 -553 0
-550 553 0
-552 553 0
553 551 -543 0
-553 543 0
-551 543 0
527 554 0
-527 -554 0
528 555 0
-528 -555 0
-520 -554 557 0
520 -557 0
554 -557 0
-537 -527 558 0
537 -558 0
527 -558 0
-523 -554 559 0
523 -559 0
554 -559 0
-537 -527 560 0
537 -560 0
527 -560 0
-557 -555 561 0
557 -561 0
555 -561 0
-558 -528 562 0
558 -562 0
528 -562 0
-559 -555 563 0
559 -563 0
555 -563 0
-560 -528 564 0
560 -564 0
528 -564 0
561 562 -565 0
-561 565 0
-562 565 0
563 565 -566 0
-563 566 0
-565 566 0
566 564 -556 0
-566 556 0
-564 556 0
529 567 0
-529 -567 0
530 568 0
-530 -568 0
-520 -567 570 0
520 -570 0
567 -570 0
-537 -529 571 0
537 -571 0
529 -571 0
-523 -567 572 0
523 -572 0
567 -572 0
-537 -529 573 0
537 -573 0
529 -573 0
-570 -568 574 0
570 -574 0
568 -574 0
-571 -530 575 0
571 -575 0
530 -575 0
-572 -568 576 0
572 -576 0
568 -576 0
-573 -530 577 0
573 -577 0
530 -577 0
574 575 -578 0
-574 578 0
-575 578 0
576 578 -579 0
-576 579 0
-578 579 0
579 577 -569 0
-579 569 0
-577 569 0
531 580 0
-531 -580 0
532 581 0
-532 -581 0
-520 -580 583 0
520 -583 0
580 -583 0
-539 -531 584 0
539 -584 0
531 -584 0
-523 -580 585 0
523 -585 0
580 -585 0
-539 -531 586 0
539 -586 0
531 -586 0
-583 -581 587 0
583 -587 0
581 -587 0
-584 -532 588 0
584 -588 0
532 -588 0
-585 -581 589 0
585 -589 0
581 -589 0
-586 -532 590 0
586 -590 0
532 -590 0
587 588 -591 0
-587 591 0
-588 591 0
589 591 -592 0
-589 592 0
-591 592 0
592 590 -582 0
-592 582 0
-590 582 0
533 593 0
-533 -593 0
534 594 0
-534 -594 0
-520 -593 596 0
520 -596 0
593 -596 0
-538 -533 597 0
538 -597 0
533 -597 0
-523 -593 598 0
523 -598 0
593 -598 0
-538 -533 599 0
538 -599 0
533 -599 0
-596 -594 600 0
596 -600 0
594 -600 0
-597 -534 601 0
597 -601 0
534 -601 0
-598 -594 602 0
598 -602 0
594 -602 0
-599 -534 603 0
599 -603 0
534 -603 0
600 601 -604 0
-600 604 0
-601 604 0
602 604 -605 0
-602 605 0
-604 605 0
605 603 -595 0
-605 595 0
-603 595 0
6 -525 0
-6 525 0
7 -526 0
-7 526 0
8 -527 0
-8 527 0
9 -528 0
-9 528 0
10 -529 0
-10 529 0
11 -530 0
-11 530 0
12 -531 0
-12 531 0
13 -532 0
-13 532 0
14 -533 0
-14 533 0
15 -534 0
-15 534 0
-520 0
-521 0
-522 0
-523 0
524 0
-535 0
536 0
c New ckt:
-606 -608 -626 0
606 626 0
608 626 0
-608 -609 -623 0
608 623 0
609 623 0
-607 -642 -625 0
607 625 0
642 625 0
-610 -642 -624 0
610 624 0
642 624 0
-629 -668 -621 0
629 621 0
668 621 0
-681 -681 -622 0
681 622 0
681 622 0
611 627 0
-611 -627 0
612 628 0
-612 -628 0
-606 -627 630 0
606 -630 0
627 -630 0
-626 -611 631 0
626 -631 0
611 -631 0
-609 -627 632 0
609 -632 0
627 -632 0
-626 -611 633 0
626 -633 0
611 -633 0
-630 -628 634 0
630 -634 0
628 -634 0
-631 -612 635 0
631 -635 0
612 -635 0
-632 -628 636 0
632 -636 0
628 -636 0
-633 -612 637 0
633 -637 0
612 -637 0
634 635 -638 0
-634 638 0
-635 638 0
636 638 -639 0
-636 639 0
-638 639 0
639 637 -629 0
-639 629 0
-637 629 0
613 640 0
-613 -640 0
614 641 0
-614 -641 0
-606 -640 643 0
606 -643 0
640 -643 0
-623 -613 644 0
623 -644 0
613 -644 0
-609 -640 645 0
609 -645 0
640 -645 0
-623 -613 646 0
623 -646 0
613 -646 0
-643 -641 647 0
643 -647 0
641 -647 0
-644 -614 648 0
644 -648 0
614 -648 0
-645 -641 649 0
645 -649 0
641 -649 0
-646 -614 650 0
646 -650 0
614 -650 0
647 648 -651 0
-647 651 0
-648 651 0
649 651 -652 0
-649 652 0
-651 652 0
652 650 -642 0
-652 642 0
-650 642 0
615 653 0
-615 -653 0
616 654 0
-616 -654 0
-606 -653 656 0
606 -656 0
653 -656 0
-623 -615 657 0
623 -657 0
615 -657 0
-609 -653 658 0
609 -658 0
653 -658 0
-623 -615 659 0
623 -659 0
615 -659 0
-656 -654 660 0
656 -660 0
654 -660 0
-657 -616 661 0
657 -661 0
616 -661 0
-658 -654 662 0
658 -662 0
654 -662 0
-659 -616 663 0
659 -663 0
616 -663 0
660 661 -664 0
-660 664 0
-661 664 0
662 664 -665 0
-662 665 0
-664 665 0
665 663 -655 0
-665 655 0
-663 655 0
617 666 0
-617 -666 0
618 667 0
-618 -667 0
-606 -666 669 0
606 -669 0
666 -669 0
-625 -617 670 0
625 -670 0
617 -670 0
-609 -666 671 0
609 -671 0
666 -671 0
-625 -617 672 0
625 -672 0
617 -672 0
-669 -667 673 0
669 -673 0
667 -673 0
-670 -618 674 0
670 -674 0
618 -674 0
-671 -667 675 0
671 -675 0
667 -675 0
-672 -618 676 0
672 -676 0
618 -676 0
673 674 -677 0
-673 677 0
-674 677 0
675 677 -678 0
-675 678 0
-677 678 0
678 676 -668 0
-678 668 0
-676 668 0
619 679 0
-619 -679 0
620 680 0
-620 -680 0
-606 -679 682 0
606 -682 0
679 -682 0
-624 -619 683 0
624 -683 0
619 -683 0
-609 -679 684 0
609 -684 0
679 -684 0
-624 -619 685 0
624 -685 0
619 -685 0
-682 -680 686 0
682 -686 0
680 -686 0
-683 -620 687 0
683 -687 0
620 -687 0
-684 -680 688 0
684 -688 0
680 -688 0
-685 -620 689 0
685 -689 0
620 -689 0
686 687 -690 0
-686 690 0
-687 690 0
688 690 -691 0
-688 691 0
-690 691 0
691 689 -681 0
-691 681 0
-689 681 0
92 -611 0
-92 611 0
93 -612 0
-93 612 0
94 -613 0
-94 613 0
95 -614 0
-95 614 0
96 -615 0
-96 615 0
97 -616 0
-97 616 0
98 -617 0
-98 617 0
99 -618 0
-99 618 0
100 -619 0
-100 619 0
101 -620 0
-101 620 0
-606 0
-607 0
-608 0
-609 0
610 0
-621 0
622 0
